28
0 1 2 3 1 4 2 3 3 5 1 4 6 7 5 8 6 9 4 4 10 11 11 9 12 12 13 9 6 13 6 3 7 2 8 11 5 7 14 13 15 15 16 14 5 7 17 18 10 16 8 2 13 19 14 14 20 21 15 17 22 20 19 1 22 8 18 20 17 21 23 23 16 9 19 24 21 12 6 12 0 21 10 16 24 17 10 19 18 25 26 4 27 23 27 24 22 25 6 26 
